
Gurobi 6.0.5 (linux64) logging started Thu Oct  1 10:32:34 2015


Gurobi Optimizer version 6.0.5 build v6.0.5rc1 (linux64)
Copyright (c) 2015, Gurobi Optimization, Inc.

Read LP format model from file /opt/gurobi605/linux64/examples/data/coins.lp
Reading time = 0.00 seconds
(null): 4 rows, 9 columns, 16 nonzeros
Optimize a model with 4 rows, 9 columns and 16 nonzeros
Coefficient statistics:
  Matrix range    [6e-02, 7e+00]
  Objective range [1e-02, 1e+00]
  Bounds range    [5e+01, 1e+03]
  RHS range       [0e+00, 0e+00]
Found heuristic solution: objective -0
Presolve removed 1 rows and 5 columns
Presolve time: 0.01s
Presolved: 3 rows, 4 columns, 9 nonzeros
Variable types: 0 continuous, 4 integer (0 binary)

Root relaxation: objective 1.134615e+02, 4 iterations, 0.00 seconds

    Nodes    |    Current Node    |     Objective Bounds      |     Work
 Expl Unexpl |  Obj  Depth IntInf | Incumbent    BestBd   Gap | It/Node Time

     0     0  113.46154    0    1   -0.00000  113.46154      -     -    0s
H    0     0                     113.4500000  113.46154  0.01%     -    0s

Explored 0 nodes (4 simplex iterations) in 0.02 seconds
Thread count was 2 (of 2 available processors)

Optimal solution found (tolerance 1.00e-04)
Best objective 1.134500000000e+02, best bound 1.134500000000e+02, gap 0.0%

Gurobi 6.0.5 (linux64) logging started Thu Oct  1 10:33:28 2015


Gurobi Optimizer version 6.0.5 build v6.0.5rc1 (linux64)
Copyright (c) 2015, Gurobi Optimization, Inc.

Read LP format model from file /opt/gurobi605/linux64/examples/data/coins.lp
Reading time = 0.00 seconds
(null): 4 rows, 9 columns, 16 nonzeros
Optimize a model with 4 rows, 9 columns and 16 nonzeros
Coefficient statistics:
  Matrix range    [6e-02, 7e+00]
  Objective range [1e-02, 1e+00]
  Bounds range    [5e+01, 1e+03]
  RHS range       [0e+00, 0e+00]
Found heuristic solution: objective -0
Presolve removed 1 rows and 5 columns
Presolve time: 0.00s
Presolved: 3 rows, 4 columns, 9 nonzeros
Variable types: 0 continuous, 4 integer (0 binary)

Root relaxation: objective 1.134615e+02, 4 iterations, 0.00 seconds

    Nodes    |    Current Node    |     Objective Bounds      |     Work
 Expl Unexpl |  Obj  Depth IntInf | Incumbent    BestBd   Gap | It/Node Time

     0     0  113.46154    0    1   -0.00000  113.46154      -     -    0s
H    0     0                     113.4500000  113.46154  0.01%     -    0s

Explored 0 nodes (4 simplex iterations) in 0.00 seconds
Thread count was 2 (of 2 available processors)

Optimal solution found (tolerance 1.00e-04)
Best objective 1.134500000000e+02, best bound 1.134500000000e+02, gap 0.0%

Gurobi 6.0.5 (linux64) logging started Thu Oct  1 10:35:22 2015


Gurobi Optimizer version 6.0.5 build v6.0.5rc1 (linux64)
Copyright (c) 2015, Gurobi Optimization, Inc.

Read LP format model from file /opt/gurobi605/linux64/examples/data/coins.lp
Reading time = 0.00 seconds
(null): 4 rows, 9 columns, 16 nonzeros
Optimize a model with 4 rows, 9 columns and 16 nonzeros
Coefficient statistics:
  Matrix range    [6e-02, 7e+00]
  Objective range [1e-02, 1e+00]
  Bounds range    [5e+01, 1e+03]
  RHS range       [0e+00, 0e+00]
Found heuristic solution: objective -0
Presolve removed 1 rows and 5 columns
Presolve time: 0.01s
Presolved: 3 rows, 4 columns, 9 nonzeros
Variable types: 0 continuous, 4 integer (0 binary)

Root relaxation: objective 1.134615e+02, 4 iterations, 0.00 seconds

    Nodes    |    Current Node    |     Objective Bounds      |     Work
 Expl Unexpl |  Obj  Depth IntInf | Incumbent    BestBd   Gap | It/Node Time

     0     0  113.46154    0    1   -0.00000  113.46154      -     -    0s
H    0     0                     113.4500000  113.46154  0.01%     -    0s

Explored 0 nodes (4 simplex iterations) in 0.02 seconds
Thread count was 2 (of 2 available processors)

Optimal solution found (tolerance 1.00e-04)
Best objective 1.134500000000e+02, best bound 1.134500000000e+02, gap 0.0%

Gurobi 6.0.5 (linux64) logging started Thu Oct  1 10:35:32 2015


Gurobi Optimizer version 6.0.5 build v6.0.5rc1 (linux64)
Copyright (c) 2015, Gurobi Optimization, Inc.

Read LP format model from file /opt/gurobi605/linux64/examples/data/coins.lp
Reading time = 0.00 seconds
(null): 4 rows, 9 columns, 16 nonzeros
Optimize a model with 4 rows, 9 columns and 16 nonzeros
Coefficient statistics:
  Matrix range    [6e-02, 7e+00]
  Objective range [1e-02, 1e+00]
  Bounds range    [5e+01, 1e+03]
  RHS range       [0e+00, 0e+00]
Found heuristic solution: objective -0
Presolve removed 1 rows and 5 columns
Presolve time: 0.00s
Presolved: 3 rows, 4 columns, 9 nonzeros
Variable types: 0 continuous, 4 integer (0 binary)

Root relaxation: objective 1.134615e+02, 4 iterations, 0.00 seconds

    Nodes    |    Current Node    |     Objective Bounds      |     Work
 Expl Unexpl |  Obj  Depth IntInf | Incumbent    BestBd   Gap | It/Node Time

     0     0  113.46154    0    1   -0.00000  113.46154      -     -    0s
H    0     0                     113.4500000  113.46154  0.01%     -    0s

Explored 0 nodes (4 simplex iterations) in 0.00 seconds
Thread count was 2 (of 2 available processors)

Optimal solution found (tolerance 1.00e-04)
Best objective 1.134500000000e+02, best bound 1.134500000000e+02, gap 0.0%

Gurobi 6.0.5 (linux64) logging started Thu Oct  1 10:36:20 2015


Gurobi Optimizer version 6.0.5 build v6.0.5rc1 (linux64)
Copyright (c) 2015, Gurobi Optimization, Inc.

Read LP format model from file /opt/gurobi605/linux64/examples/data/coins.lp
Reading time = 0.00 seconds
(null): 4 rows, 9 columns, 16 nonzeros
Optimize a model with 4 rows, 9 columns and 16 nonzeros
Coefficient statistics:
  Matrix range    [6e-02, 7e+00]
  Objective range [1e-02, 1e+00]
  Bounds range    [5e+01, 1e+03]
  RHS range       [0e+00, 0e+00]
Found heuristic solution: objective -0
Presolve removed 1 rows and 5 columns
Presolve time: 0.00s
Presolved: 3 rows, 4 columns, 9 nonzeros
Variable types: 0 continuous, 4 integer (0 binary)

Root relaxation: objective 1.134615e+02, 4 iterations, 0.00 seconds

    Nodes    |    Current Node    |     Objective Bounds      |     Work
 Expl Unexpl |  Obj  Depth IntInf | Incumbent    BestBd   Gap | It/Node Time

     0     0  113.46154    0    1   -0.00000  113.46154      -     -    0s
H    0     0                     113.4500000  113.46154  0.01%     -    0s

Explored 0 nodes (4 simplex iterations) in 0.00 seconds
Thread count was 2 (of 2 available processors)

Optimal solution found (tolerance 1.00e-04)
Best objective 1.134500000000e+02, best bound 1.134500000000e+02, gap 0.0%

Unknown file type for file '/tmp/RtmpWJ1qKq/file15af31923de4.out'


Gurobi 6.0.5 (linux64) logging started Thu Oct  1 10:36:31 2015


Gurobi Optimizer version 6.0.5 build v6.0.5rc1 (linux64)
Copyright (c) 2015, Gurobi Optimization, Inc.

Read LP format model from file /opt/gurobi605/linux64/examples/data/coins.lp
Reading time = 0.00 seconds
(null): 4 rows, 9 columns, 16 nonzeros
Optimize a model with 4 rows, 9 columns and 16 nonzeros
Coefficient statistics:
  Matrix range    [6e-02, 7e+00]
  Objective range [1e-02, 1e+00]
  Bounds range    [5e+01, 1e+03]
  RHS range       [0e+00, 0e+00]
Found heuristic solution: objective -0
Presolve removed 1 rows and 5 columns
Presolve time: 0.00s
Presolved: 3 rows, 4 columns, 9 nonzeros
Variable types: 0 continuous, 4 integer (0 binary)

Root relaxation: objective 1.134615e+02, 4 iterations, 0.00 seconds

    Nodes    |    Current Node    |     Objective Bounds      |     Work
 Expl Unexpl |  Obj  Depth IntInf | Incumbent    BestBd   Gap | It/Node Time

     0     0  113.46154    0    1   -0.00000  113.46154      -     -    0s
H    0     0                     113.4500000  113.46154  0.01%     -    0s

Explored 0 nodes (4 simplex iterations) in 0.00 seconds
Thread count was 2 (of 2 available processors)

Optimal solution found (tolerance 1.00e-04)
Best objective 1.134500000000e+02, best bound 1.134500000000e+02, gap 0.0%

Wrote result file '/tmp/RtmpWJ1qKq/file15af6428f36b.sol'


Gurobi 6.0.5 (linux64) logging started Thu Oct  1 11:40:01 2015


ERROR 10008: Invalid value '' for parameter 'Presolve'


Gurobi 6.0.5 (linux64) logging started Thu Oct  1 11:42:32 2015

Set parameter Presolve to value 2
Set parameter MIPGap to value 0.05
Set parameter OutputFlag to value 1
Set parameter Threads to value 1

Gurobi Optimizer version 6.0.5 build v6.0.5rc1 (linux64)
Copyright (c) 2015, Gurobi Optimization, Inc.

Read LP format model from file /opt/gurobi605/linux64/examples/data/coins.lp
Reading time = 0.01 seconds
(null): 4 rows, 9 columns, 16 nonzeros
Optimize a model with 4 rows, 9 columns and 16 nonzeros
Coefficient statistics:
  Matrix range    [6e-02, 7e+00]
  Objective range [1e-02, 1e+00]
  Bounds range    [5e+01, 1e+03]
  RHS range       [0e+00, 0e+00]
Found heuristic solution: objective -0
Presolve removed 1 rows and 5 columns
Presolve time: 0.01s
Presolved: 3 rows, 4 columns, 9 nonzeros
Variable types: 0 continuous, 4 integer (0 binary)
Presolved: 3 rows, 4 columns, 9 nonzeros


Root relaxation: objective 1.134615e+02, 4 iterations, 0.00 seconds

    Nodes    |    Current Node    |     Objective Bounds      |     Work
 Expl Unexpl |  Obj  Depth IntInf | Incumbent    BestBd   Gap | It/Node Time

     0     0  113.46154    0    1   -0.00000  113.46154      -     -    0s
H    0     0                     113.4500000  113.46154  0.01%     -    0s

Explored 0 nodes (4 simplex iterations) in 0.02 seconds
Thread count was 1 (of 2 available processors)

Optimal solution found (tolerance 5.00e-02)
Best objective 1.134500000000e+02, best bound 1.134600000000e+02, gap 0.0088%

Wrote result file '/tmp/RtmpWJ1qKq/file15af12f0109b.sol'


Gurobi 6.0.5 (linux64) logging started Thu Oct  1 12:09:34 2015

Set parameter Presolve to value 2
Set parameter MIPGap to value 0.05
Set parameter OutputFlag to value 1
Set parameter Threads to value 1

Gurobi Optimizer version 6.0.5 build v6.0.5rc1 (linux64)
Copyright (c) 2015, Gurobi Optimization, Inc.

Read LP format model from file /opt/gurobi605/linux64/examples/data/coins.lp
Reading time = 0.00 seconds
(null): 4 rows, 9 columns, 16 nonzeros
Optimize a model with 4 rows, 9 columns and 16 nonzeros
Coefficient statistics:
  Matrix range    [6e-02, 7e+00]
  Objective range [1e-02, 1e+00]
  Bounds range    [5e+01, 1e+03]
  RHS range       [0e+00, 0e+00]
Found heuristic solution: objective -0
Presolve removed 1 rows and 5 columns
Presolve time: 0.01s
Presolved: 3 rows, 4 columns, 9 nonzeros
Variable types: 0 continuous, 4 integer (0 binary)
Presolved: 3 rows, 4 columns, 9 nonzeros


Root relaxation: objective 1.134615e+02, 4 iterations, 0.00 seconds

    Nodes    |    Current Node    |     Objective Bounds      |     Work
 Expl Unexpl |  Obj  Depth IntInf | Incumbent    BestBd   Gap | It/Node Time

     0     0  113.46154    0    1   -0.00000  113.46154      -     -    0s
H    0     0                     113.4500000  113.46154  0.01%     -    0s

Explored 0 nodes (4 simplex iterations) in 0.02 seconds
Thread count was 1 (of 2 available processors)

Optimal solution found (tolerance 5.00e-02)
Best objective 1.134500000000e+02, best bound 1.134600000000e+02, gap 0.0088%

Wrote result file '/tmp/RtmpWJ1qKq/file15af114a7528.sol'


Gurobi 6.0.5 (linux64) logging started Thu Oct  1 12:10:07 2015

Set parameter Presolve to value 2
Set parameter MIPGap to value 0.05
Set parameter OutputFlag to value 1
Set parameter Threads to value 1

Gurobi Optimizer version 6.0.5 build v6.0.5rc1 (linux64)
Copyright (c) 2015, Gurobi Optimization, Inc.

Read LP format model from file /opt/gurobi605/linux64/examples/data/coins.lp
Reading time = 0.00 seconds
(null): 4 rows, 9 columns, 16 nonzeros
Optimize a model with 4 rows, 9 columns and 16 nonzeros
Coefficient statistics:
  Matrix range    [6e-02, 7e+00]
  Objective range [1e-02, 1e+00]
  Bounds range    [5e+01, 1e+03]
  RHS range       [0e+00, 0e+00]
Found heuristic solution: objective -0
Presolve removed 1 rows and 5 columns
Presolve time: 0.00s
Presolved: 3 rows, 4 columns, 9 nonzeros
Variable types: 0 continuous, 4 integer (0 binary)
Presolved: 3 rows, 4 columns, 9 nonzeros


Root relaxation: objective 1.134615e+02, 4 iterations, 0.00 seconds

    Nodes    |    Current Node    |     Objective Bounds      |     Work
 Expl Unexpl |  Obj  Depth IntInf | Incumbent    BestBd   Gap | It/Node Time

     0     0  113.46154    0    1   -0.00000  113.46154      -     -    0s
H    0     0                     113.4500000  113.46154  0.01%     -    0s

Explored 0 nodes (4 simplex iterations) in 0.00 seconds
Thread count was 1 (of 2 available processors)

Optimal solution found (tolerance 5.00e-02)
Best objective 1.134500000000e+02, best bound 1.134600000000e+02, gap 0.0088%

Wrote result file '/tmp/RtmpWJ1qKq/file15af114a7528.sol'


Gurobi 6.0.5 (linux64) logging started Thu Oct  1 12:10:26 2015

Set parameter Presolve to value 2
Set parameter MIPGap to value 0.05
Set parameter OutputFlag to value 1
Set parameter Threads to value 1

Gurobi Optimizer version 6.0.5 build v6.0.5rc1 (linux64)
Copyright (c) 2015, Gurobi Optimization, Inc.

Read LP format model from file /opt/gurobi605/linux64/examples/data/coins.lp
Reading time = 0.00 seconds
(null): 4 rows, 9 columns, 16 nonzeros
Optimize a model with 4 rows, 9 columns and 16 nonzeros
Coefficient statistics:
  Matrix range    [6e-02, 7e+00]
  Objective range [1e-02, 1e+00]
  Bounds range    [5e+01, 1e+03]
  RHS range       [0e+00, 0e+00]
Found heuristic solution: objective -0
Presolve removed 1 rows and 5 columns
Presolve time: 0.00s
Presolved: 3 rows, 4 columns, 9 nonzeros
Variable types: 0 continuous, 4 integer (0 binary)
Presolved: 3 rows, 4 columns, 9 nonzeros


Root relaxation: objective 1.134615e+02, 4 iterations, 0.00 seconds

    Nodes    |    Current Node    |     Objective Bounds      |     Work
 Expl Unexpl |  Obj  Depth IntInf | Incumbent    BestBd   Gap | It/Node Time

     0     0  113.46154    0    1   -0.00000  113.46154      -     -    0s
H    0     0                     113.4500000  113.46154  0.01%     -    0s

Explored 0 nodes (4 simplex iterations) in 0.00 seconds
Thread count was 1 (of 2 available processors)

Optimal solution found (tolerance 5.00e-02)
Best objective 1.134500000000e+02, best bound 1.134600000000e+02, gap 0.0088%

Wrote result file '/tmp/RtmpWJ1qKq/file15af114a7528.sol'


Gurobi 6.0.5 (linux64) logging started Thu Oct  1 12:11:25 2015

Set parameter Presolve to value 2
Set parameter MIPGap to value 0.05
Set parameter OutputFlag to value 1
Set parameter Threads to value 1

Gurobi Optimizer version 6.0.5 build v6.0.5rc1 (linux64)
Copyright (c) 2015, Gurobi Optimization, Inc.

Read LP format model from file /opt/gurobi605/linux64/examples/data/coins.lp
Reading time = 0.00 seconds
(null): 4 rows, 9 columns, 16 nonzeros
Optimize a model with 4 rows, 9 columns and 16 nonzeros
Coefficient statistics:
  Matrix range    [6e-02, 7e+00]
  Objective range [1e-02, 1e+00]
  Bounds range    [5e+01, 1e+03]
  RHS range       [0e+00, 0e+00]
Found heuristic solution: objective -0
Presolve removed 1 rows and 5 columns
Presolve time: 0.01s
Presolved: 3 rows, 4 columns, 9 nonzeros
Variable types: 0 continuous, 4 integer (0 binary)
Presolved: 3 rows, 4 columns, 9 nonzeros


Root relaxation: objective 1.134615e+02, 4 iterations, 0.00 seconds

    Nodes    |    Current Node    |     Objective Bounds      |     Work
 Expl Unexpl |  Obj  Depth IntInf | Incumbent    BestBd   Gap | It/Node Time

     0     0  113.46154    0    1   -0.00000  113.46154      -     -    0s
H    0     0                     113.4500000  113.46154  0.01%     -    0s

Explored 0 nodes (4 simplex iterations) in 0.02 seconds
Thread count was 1 (of 2 available processors)

Optimal solution found (tolerance 5.00e-02)
Best objective 1.134500000000e+02, best bound 1.134600000000e+02, gap 0.0088%

Wrote result file '/tmp/RtmpWJ1qKq/file15af114a7528.sol'


Gurobi 6.0.5 (linux64) logging started Thu Oct  1 12:11:43 2015

Set parameter Presolve to value 2
Set parameter MIPGap to value 0.05
Set parameter OutputFlag to value 1
Set parameter Threads to value 1

Gurobi Optimizer version 6.0.5 build v6.0.5rc1 (linux64)
Copyright (c) 2015, Gurobi Optimization, Inc.

Read LP format model from file /opt/gurobi605/linux64/examples/data/coins.lp
Reading time = 0.00 seconds
(null): 4 rows, 9 columns, 16 nonzeros
Optimize a model with 4 rows, 9 columns and 16 nonzeros
Coefficient statistics:
  Matrix range    [6e-02, 7e+00]
  Objective range [1e-02, 1e+00]
  Bounds range    [5e+01, 1e+03]
  RHS range       [0e+00, 0e+00]
Found heuristic solution: objective -0
Presolve removed 1 rows and 5 columns
Presolve time: 0.01s
Presolved: 3 rows, 4 columns, 9 nonzeros
Variable types: 0 continuous, 4 integer (0 binary)
Presolved: 3 rows, 4 columns, 9 nonzeros


Root relaxation: objective 1.134615e+02, 4 iterations, 0.00 seconds

    Nodes    |    Current Node    |     Objective Bounds      |     Work
 Expl Unexpl |  Obj  Depth IntInf | Incumbent    BestBd   Gap | It/Node Time

     0     0  113.46154    0    1   -0.00000  113.46154      -     -    0s
H    0     0                     113.4500000  113.46154  0.01%     -    0s

Explored 0 nodes (4 simplex iterations) in 0.02 seconds
Thread count was 1 (of 2 available processors)

Optimal solution found (tolerance 5.00e-02)
Best objective 1.134500000000e+02, best bound 1.134600000000e+02, gap 0.0088%

Wrote result file '/tmp/RtmpWJ1qKq/file15af114a7528.sol'


Gurobi 6.0.5 (linux64) logging started Thu Oct  1 12:11:57 2015

Set parameter Presolve to value 2
Set parameter MIPGap to value 0.05
Set parameter OutputFlag to value 1
Set parameter Threads to value 1

Gurobi Optimizer version 6.0.5 build v6.0.5rc1 (linux64)
Copyright (c) 2015, Gurobi Optimization, Inc.

Read LP format model from file /opt/gurobi605/linux64/examples/data/coins.lp
Reading time = 0.00 seconds
(null): 4 rows, 9 columns, 16 nonzeros
Optimize a model with 4 rows, 9 columns and 16 nonzeros
Coefficient statistics:
  Matrix range    [6e-02, 7e+00]
  Objective range [1e-02, 1e+00]
  Bounds range    [5e+01, 1e+03]
  RHS range       [0e+00, 0e+00]
Found heuristic solution: objective -0
Presolve removed 1 rows and 5 columns
Presolve time: 0.00s
Presolved: 3 rows, 4 columns, 9 nonzeros
Variable types: 0 continuous, 4 integer (0 binary)
Presolved: 3 rows, 4 columns, 9 nonzeros


Root relaxation: objective 1.134615e+02, 4 iterations, 0.00 seconds

    Nodes    |    Current Node    |     Objective Bounds      |     Work
 Expl Unexpl |  Obj  Depth IntInf | Incumbent    BestBd   Gap | It/Node Time

     0     0  113.46154    0    1   -0.00000  113.46154      -     -    0s
H    0     0                     113.4500000  113.46154  0.01%     -    0s

Explored 0 nodes (4 simplex iterations) in 0.00 seconds
Thread count was 1 (of 2 available processors)

Optimal solution found (tolerance 5.00e-02)
Best objective 1.134500000000e+02, best bound 1.134600000000e+02, gap 0.0088%

Wrote result file '/tmp/RtmpWJ1qKq/file15af114a7528.sol'


Gurobi 6.0.5 (linux64) logging started Thu Oct  1 12:13:17 2015

Set parameter Presolve to value 2
Set parameter MIPGap to value 0.05
Set parameter OutputFlag to value 1
Set parameter Threads to value 1

Gurobi Optimizer version 6.0.5 build v6.0.5rc1 (linux64)
Copyright (c) 2015, Gurobi Optimization, Inc.

Read LP format model from file /opt/gurobi605/linux64/examples/data/coins.lp
Reading time = 0.00 seconds
(null): 4 rows, 9 columns, 16 nonzeros
Optimize a model with 4 rows, 9 columns and 16 nonzeros
Coefficient statistics:
  Matrix range    [6e-02, 7e+00]
  Objective range [1e-02, 1e+00]
  Bounds range    [5e+01, 1e+03]
  RHS range       [0e+00, 0e+00]
Found heuristic solution: objective -0
Presolve removed 1 rows and 5 columns
Presolve time: 0.00s
Presolved: 3 rows, 4 columns, 9 nonzeros
Variable types: 0 continuous, 4 integer (0 binary)
Presolved: 3 rows, 4 columns, 9 nonzeros


Root relaxation: objective 1.134615e+02, 4 iterations, 0.00 seconds

    Nodes    |    Current Node    |     Objective Bounds      |     Work
 Expl Unexpl |  Obj  Depth IntInf | Incumbent    BestBd   Gap | It/Node Time

     0     0  113.46154    0    1   -0.00000  113.46154      -     -    0s
H    0     0                     113.4500000  113.46154  0.01%     -    0s

Explored 0 nodes (4 simplex iterations) in 0.00 seconds
Thread count was 1 (of 2 available processors)

Optimal solution found (tolerance 5.00e-02)
Best objective 1.134500000000e+02, best bound 1.134600000000e+02, gap 0.0088%

Wrote result file '/tmp/RtmpWJ1qKq/file15af114a7528.sol'


Gurobi 6.0.5 (linux64) logging started Thu Oct  1 12:13:31 2015

Set parameter Presolve to value 2
Set parameter MIPGap to value 0.05
Set parameter OutputFlag to value 1
Set parameter Threads to value 1

Gurobi Optimizer version 6.0.5 build v6.0.5rc1 (linux64)
Copyright (c) 2015, Gurobi Optimization, Inc.

Read LP format model from file /opt/gurobi605/linux64/examples/data/coins.lp
Reading time = 0.00 seconds
(null): 4 rows, 9 columns, 16 nonzeros
Optimize a model with 4 rows, 9 columns and 16 nonzeros
Coefficient statistics:
  Matrix range    [6e-02, 7e+00]
  Objective range [1e-02, 1e+00]
  Bounds range    [5e+01, 1e+03]
  RHS range       [0e+00, 0e+00]
Found heuristic solution: objective -0
Presolve removed 1 rows and 5 columns
Presolve time: 0.00s
Presolved: 3 rows, 4 columns, 9 nonzeros
Variable types: 0 continuous, 4 integer (0 binary)
Presolved: 3 rows, 4 columns, 9 nonzeros


Root relaxation: objective 1.134615e+02, 4 iterations, 0.00 seconds

    Nodes    |    Current Node    |     Objective Bounds      |     Work
 Expl Unexpl |  Obj  Depth IntInf | Incumbent    BestBd   Gap | It/Node Time

     0     0  113.46154    0    1   -0.00000  113.46154      -     -    0s
H    0     0                     113.4500000  113.46154  0.01%     -    0s

Explored 0 nodes (4 simplex iterations) in 0.00 seconds
Thread count was 1 (of 2 available processors)

Optimal solution found (tolerance 5.00e-02)
Best objective 1.134500000000e+02, best bound 1.134600000000e+02, gap 0.0088%

Wrote result file '/tmp/RtmpWJ1qKq/file15af114a7528.sol'


Gurobi 6.0.5 (linux64) logging started Thu Oct  1 12:13:43 2015

Set parameter Presolve to value 2
Set parameter MIPGap to value 0.05
Set parameter OutputFlag to value 1
Set parameter Threads to value 1

Gurobi Optimizer version 6.0.5 build v6.0.5rc1 (linux64)
Copyright (c) 2015, Gurobi Optimization, Inc.

Read LP format model from file /opt/gurobi605/linux64/examples/data/coins.lp
Reading time = 0.00 seconds
(null): 4 rows, 9 columns, 16 nonzeros
Optimize a model with 4 rows, 9 columns and 16 nonzeros
Coefficient statistics:
  Matrix range    [6e-02, 7e+00]
  Objective range [1e-02, 1e+00]
  Bounds range    [5e+01, 1e+03]
  RHS range       [0e+00, 0e+00]
Found heuristic solution: objective -0
Presolve removed 1 rows and 5 columns
Presolve time: 0.00s
Presolved: 3 rows, 4 columns, 9 nonzeros
Variable types: 0 continuous, 4 integer (0 binary)
Presolved: 3 rows, 4 columns, 9 nonzeros


Root relaxation: objective 1.134615e+02, 4 iterations, 0.00 seconds

    Nodes    |    Current Node    |     Objective Bounds      |     Work
 Expl Unexpl |  Obj  Depth IntInf | Incumbent    BestBd   Gap | It/Node Time

     0     0  113.46154    0    1   -0.00000  113.46154      -     -    0s
H    0     0                     113.4500000  113.46154  0.01%     -    0s

Explored 0 nodes (4 simplex iterations) in 0.00 seconds
Thread count was 1 (of 2 available processors)

Optimal solution found (tolerance 5.00e-02)
Best objective 1.134500000000e+02, best bound 1.134600000000e+02, gap 0.0088%

Wrote result file '/tmp/RtmpWJ1qKq/file15af114a7528.sol'


Gurobi 6.0.5 (linux64) logging started Thu Oct  1 12:14:03 2015

Set parameter Presolve to value 2
Set parameter MIPGap to value 0.05
Set parameter OutputFlag to value 1
Set parameter Threads to value 1

Gurobi Optimizer version 6.0.5 build v6.0.5rc1 (linux64)
Copyright (c) 2015, Gurobi Optimization, Inc.

Read LP format model from file /opt/gurobi605/linux64/examples/data/coins.lp
Reading time = 0.00 seconds
(null): 4 rows, 9 columns, 16 nonzeros
Optimize a model with 4 rows, 9 columns and 16 nonzeros
Coefficient statistics:
  Matrix range    [6e-02, 7e+00]
  Objective range [1e-02, 1e+00]
  Bounds range    [5e+01, 1e+03]
  RHS range       [0e+00, 0e+00]
Found heuristic solution: objective -0
Presolve removed 1 rows and 5 columns
Presolve time: 0.00s
Presolved: 3 rows, 4 columns, 9 nonzeros
Variable types: 0 continuous, 4 integer (0 binary)
Presolved: 3 rows, 4 columns, 9 nonzeros


Root relaxation: objective 1.134615e+02, 4 iterations, 0.00 seconds

    Nodes    |    Current Node    |     Objective Bounds      |     Work
 Expl Unexpl |  Obj  Depth IntInf | Incumbent    BestBd   Gap | It/Node Time

     0     0  113.46154    0    1   -0.00000  113.46154      -     -    0s
H    0     0                     113.4500000  113.46154  0.01%     -    0s

Explored 0 nodes (4 simplex iterations) in 0.00 seconds
Thread count was 1 (of 2 available processors)

Optimal solution found (tolerance 5.00e-02)
Best objective 1.134500000000e+02, best bound 1.134600000000e+02, gap 0.0088%

Wrote result file '/tmp/RtmpWJ1qKq/file15af6e2a6e1d.sol'


Gurobi 6.0.5 (linux64) logging started Thu Oct  1 12:14:08 2015

Set parameter Presolve to value 2
Set parameter MIPGap to value 0.05
Set parameter OutputFlag to value 1
Set parameter Threads to value 1

Gurobi Optimizer version 6.0.5 build v6.0.5rc1 (linux64)
Copyright (c) 2015, Gurobi Optimization, Inc.

Read LP format model from file /opt/gurobi605/linux64/examples/data/coins.lp
Reading time = 0.00 seconds
(null): 4 rows, 9 columns, 16 nonzeros
Optimize a model with 4 rows, 9 columns and 16 nonzeros
Coefficient statistics:
  Matrix range    [6e-02, 7e+00]
  Objective range [1e-02, 1e+00]
  Bounds range    [5e+01, 1e+03]
  RHS range       [0e+00, 0e+00]
Found heuristic solution: objective -0
Presolve removed 1 rows and 5 columns
Presolve time: 0.00s
Presolved: 3 rows, 4 columns, 9 nonzeros
Variable types: 0 continuous, 4 integer (0 binary)
Presolved: 3 rows, 4 columns, 9 nonzeros


Root relaxation: objective 1.134615e+02, 4 iterations, 0.00 seconds

    Nodes    |    Current Node    |     Objective Bounds      |     Work
 Expl Unexpl |  Obj  Depth IntInf | Incumbent    BestBd   Gap | It/Node Time

     0     0  113.46154    0    1   -0.00000  113.46154      -     -    0s
H    0     0                     113.4500000  113.46154  0.01%     -    0s

Explored 0 nodes (4 simplex iterations) in 0.00 seconds
Thread count was 1 (of 2 available processors)

Optimal solution found (tolerance 5.00e-02)
Best objective 1.134500000000e+02, best bound 1.134600000000e+02, gap 0.0088%

Wrote result file '/tmp/RtmpWJ1qKq/file15af6794dd19.sol'

